Cost: 596
0-28-22-23-16-0
0-34-46-26-0
0-9-25-32-0
0-27-13-52-0
0-6-33-51-0
0-7-35-8-0
0-36-37-29-0
0-17-40-12-0
0-43-41-42-0
0-2-30-4-0
0-39-10-38-0
Cost: 596
0-28-22-23-16-0
0-34-46-26-0
0-9-25-32-0
0-27-13-52-0
0-6-33-51-0
0-7-35-8-0
0-36-37-29-0
0-17-40-12-0
0-43-41-42-0
0-2-30-4-0
0-39-10-38-0
Cost: 596
0-28-22-23-16-0
0-34-46-26-0
0-9-25-32-0
0-27-13-52-0
0-6-33-51-0
0-7-35-8-0
0-36-37-29-0
0-17-40-12-0
0-43-41-42-0
0-2-30-4-0
0-39-10-38-0
Cost: 596
0-28-22-23-16-0
0-34-46-26-0
0-9-25-32-0
0-27-13-52-0
0-6-33-51-0
0-7-35-8-0
0-36-37-29-0
0-17-40-12-0
0-43-41-42-0
0-2-30-4-0
0-39-10-38-0
Cost: 596
0-28-22-23-16-0
0-34-46-26-0
0-9-25-32-0
0-27-13-52-0
0-6-33-51-0
0-7-35-8-0
0-36-37-29-0
0-17-40-12-0
0-43-41-42-0
0-2-30-4-0
0-39-10-38-0
Cost: 596
0-28-22-23-16-0
0-34-46-26-0
0-9-25-32-0
0-27-13-52-0
0-6-33-51-0
0-7-35-8-0
0-36-37-29-0
0-17-40-12-0
0-43-41-42-0
0-2-30-4-0
0-39-10-38-0
Cost: 596
0-28-22-23-16-0
0-34-46-26-0
0-9-25-32-0
0-27-13-52-0
0-6-33-51-0
0-7-35-8-0
0-36-37-29-0
0-17-40-12-0
0-43-41-42-0
0-2-30-4-0
0-39-10-38-0
Cost: 596
0-28-22-23-16-0
0-34-46-26-0
0-9-25-32-0
0-27-13-52-0
0-6-33-51-0
0-7-35-8-0
0-36-37-29-0
0-17-40-12-0
0-43-41-42-0
0-2-30-4-0
0-39-10-38-0
Cost: 596
0-28-22-23-16-0
0-34-46-26-0
0-9-25-32-0
0-27-13-52-0
0-6-33-51-0
0-7-35-8-0
0-36-37-29-0
0-17-40-12-0
0-43-41-42-0
0-2-30-4-0
0-39-10-38-0
Cost: 596
0-28-22-23-16-0
0-34-46-26-0
0-9-25-32-0
0-27-13-52-0
0-6-33-51-0
0-7-35-8-0
0-36-37-29-0
0-17-40-12-0
0-43-41-42-0
0-2-30-4-0
0-39-10-38-0
Cost: 596
0-28-22-23-16-0
0-34-46-26-0
0-9-25-32-0
0-27-13-52-0
0-6-33-51-0
0-7-35-8-0
0-36-37-29-0
0-17-40-12-0
0-43-41-42-0
0-2-30-4-0
0-39-10-38-0
Cost: 596
0-28-22-23-16-0
0-34-46-26-0
0-9-25-32-0
0-27-13-52-0
0-6-33-51-0
0-7-35-8-0
0-36-37-29-0
0-17-40-12-0
0-43-41-42-0
0-2-30-4-0
0-39-10-38-0
Cost: 596
0-28-22-23-16-0
0-34-46-26-0
0-9-25-32-0
0-27-13-52-0
0-6-33-51-0
0-7-35-8-0
0-36-37-29-0
0-17-40-12-0
0-43-41-42-0
0-2-30-4-0
0-39-10-38-0
Cost: 596
0-28-22-23-16-0
0-34-46-26-0
0-9-25-32-0
0-27-13-52-0
0-6-33-51-0
0-7-35-8-0
0-36-37-29-0
0-17-40-12-0
0-43-41-42-0
0-2-30-4-0
0-39-10-38-0
Cost: 596
0-28-22-23-16-0
0-34-46-26-0
0-9-25-32-0
0-27-13-52-0
0-6-33-51-0
0-7-35-8-0
0-36-37-29-0
0-17-40-12-0
0-43-41-42-0
0-2-30-4-0
0-39-10-38-0
Cost: 596
0-28-22-23-16-0
0-34-46-26-0
0-9-25-32-0
0-27-13-52-0
0-6-33-51-0
0-7-35-8-0
0-36-37-29-0
0-17-40-12-0
0-43-41-42-0
0-2-30-4-0
0-39-10-38-0
Cost: 596
0-28-22-23-16-0
0-34-46-26-0
0-9-25-32-0
0-27-13-52-0
0-6-33-51-0
0-7-35-8-0
0-36-37-29-0
0-17-40-12-0
0-43-41-42-0
0-2-30-4-0
0-39-10-38-0
Cost: 596
0-28-22-23-16-0
0-34-46-26-0
0-9-25-32-0
0-27-13-52-0
0-6-33-51-0
0-7-35-8-0
0-36-37-29-0
0-17-40-12-0
0-43-41-42-0
0-2-30-4-0
0-39-10-38-0
Cost: 596
0-28-22-23-16-0
0-34-46-26-0
0-9-25-32-0
0-27-13-52-0
0-6-33-51-0
0-7-35-8-0
0-36-37-29-0
0-17-40-12-0
0-43-41-42-0
0-2-30-4-0
0-39-10-38-0
Cost: 596
0-28-22-23-16-0
0-34-46-26-0
0-9-25-32-0
0-27-13-52-0
0-6-33-51-0
0-7-35-8-0
0-36-37-29-0
0-17-40-12-0
0-43-41-42-0
0-2-30-4-0
0-39-10-38-0
Cost: 596
0-28-22-23-16-0
0-34-46-26-0
0-9-25-32-0
0-27-13-52-0
0-6-33-51-0
0-7-35-8-0
0-36-37-29-0
0-17-40-12-0
0-43-41-42-0
0-2-30-4-0
0-39-10-38-0
Cost: 596
0-28-22-23-16-0
0-34-46-26-0
0-9-25-32-0
0-27-13-52-0
0-6-33-51-0
0-7-35-8-0
0-36-37-29-0
0-17-40-12-0
0-43-41-42-0
0-2-30-4-0
0-39-10-38-0
Cost: 596
0-34-46-26-0
0-17-40-12-0
0-51-33-6-0
0-28-22-23-16-0
0-8-35-7-0
0-42-41-43-0
0-27-13-52-0
0-39-10-38-0
0-36-37-29-0
0-4-30-2-0
0-9-25-32-0
Cost: 596
0-28-22-23-16-0
0-34-46-26-0
0-9-25-32-0
0-27-13-52-0
0-6-33-51-0
0-7-35-8-0
0-36-37-29-0
0-17-40-12-0
0-43-41-42-0
0-2-30-4-0
0-39-10-38-0
Cost: 596
0-28-22-23-16-0
0-34-46-26-0
0-9-25-32-0
0-27-13-52-0
0-6-33-51-0
0-7-35-8-0
0-36-37-29-0
0-17-40-12-0
0-43-41-42-0
0-2-30-4-0
0-39-10-38-0
Cost: 596
0-28-22-23-16-0
0-34-46-26-0
0-9-25-32-0
0-27-13-52-0
0-6-33-51-0
0-7-35-8-0
0-36-37-29-0
0-17-40-12-0
0-43-41-42-0
0-2-30-4-0
0-39-10-38-0
Cost: 596
0-9-25-32-0
0-51-33-6-0
0-7-35-8-0
0-28-22-23-16-0
0-34-46-26-0
0-12-40-17-0
0-2-30-4-0
0-52-13-27-0
0-36-37-29-0
0-42-41-43-0
0-38-10-39-0
Cost: 607
0-41-42-43-0
0-4-45-29-0
0-7-35-8-0
0-25-9-39-0
0-27-13-52-0
0-26-46-34-0
0-12-10-38-0
0-17-32-40-0
0-37-36-30-0
0-28-22-23-16-0
0-6-33-2-0
Cost: 601
0-30-36-37-0
0-43-42-41-0
0-32-25-9-0
0-39-10-38-0
0-45-29-4-0
0-8-35-7-0
0-40-12-17-0
0-52-13-27-0
0-28-22-23-16-0
0-2-33-6-0
0-34-46-26-0
Cost: 596
0-40-12-26-0
0-36-37-29-0
0-16-23-22-28-0
0-30-2-33-0
0-9-25-32-0
0-43-41-42-0
0-38-10-39-0
0-46-34-4-0
0-7-35-8-0
0-17-51-6-0
0-27-13-52-0
Cost: 596
0-46-34-4-0
0-30-2-33-0
0-28-22-23-16-0
0-7-35-8-0
0-6-51-17-0
0-27-13-52-0
0-9-25-32-0
0-38-10-39-0
0-40-12-26-0
0-29-37-36-0
0-42-41-43-0
